webassembly/ejemplos_dzn/6/folder6_json_84.dzn
TERM = { '.', 's(2)', 'in_1', 'local_0', 's(1)', 's(0)', 's(3)', 'in_0'};
null = '.';
s = 6;
n = 8;
ndeps = 3;
max_registers_sz = 4;
NR = 1;
registers = [|'local_0', 's(3)'|];
dependencies = [|'i32.load16_s_2', 'i32.store_4', |'i32.store_4', 'i32.load8_u_5', |'i32.load16_u_3', 'i32.store_4'|];
GET_ENUM = { GET1, GET2, GET3, GET4, GET5};
SET_ENUM = { SET1, SET2, SET3, SET4, SET5};
TEE_ENUM = { TEE1, TEE2, TEE3, TEE4, TEE5};
N = 5;
OP = { 'i32.const_0', 'i32.load16_s_2', 'i32.load16_u_3', 'i32.store_4', 'i32.load8_u_5' };
in_ops = [0, 1, 1, 2, 1 ];
out_ops = [1, 1, 1, 0, 1 ];
in1 = ['.', 's(3)', 's(0)', 's(1)', 'in_1' ];
in2 = ['.', '.', '.', 'in_0', '.' ];
in3 = ['.', '.', '.', '.', '.' ];
out1 = ['s(3)', 's(0)', 's(1)', '.', 's(2)' ];
out2 = ['.', '.', '.', '.', '.' ];
out3 = ['.', '.', '.', '.', '.' ];
comm = [false, false, false, false, false ];
gas = [1, 1, 1, 1, 1 ];
sz = [1, 1, 1, 1, 1 ];
stor = [false, false, false, true, false ];
lb = [ 1, 1, 1, 1, 1 ];
ub = [ 6, 6, 6, 6, 6 ];
startstack = [ 'in_0', 'in_1', null, null, null, null, null, null ];
endstack = [ 's(2)', null, null, null, null, null, null, null ];
